1604307600
1604322000
1604394000
1604408400
1604480400
1604494800
1604566800
1604581200
1604655000
1604669400
1604912400
1604926800
1604998800
1605013200
1605087000
1605101400
1605171600
1605186000
1605258600
1605273000
1605517200
1605531600
1605592800
1605607200
1605690000
1605704400
1605776400
1605790800
1605862800
1605877200
1606122000
1606136400
1606209000
1606223400
1606294800
1606309200
1606381500
1606395900
1606469400
1606483800
1606726800
1606741200
